
Gurobi 7.0.2 (linux64, Matlab) logging started Sun Sep  2 08:55:02 2018


Gurobi 7.0.2 (linux64) logging started Sun Sep  2 08:55:02 2018

Optimize a model with 52261 rows, 26265 columns and 194705 nonzeros
Coefficient statistics:
  Matrix range     [1e-05, 1e+00]
  Objective range  [1e+00, 1e+00]
  Bounds range     [4e-01, 1e+00]
  RHS range        [1e-05, 1e+00]
Iteration    Objective       Primal Inf.    Dual Inf.      Time
       0   -2.5860165e+02   0.000000e+00   0.000000e+00      0s

Solved in 0 iterations and 0.02 seconds
Optimal objective -2.586016506e+02
